num_offers = 25;
num_halls = 10;
start=[29,27,45,48,99,35,7,8,59,43,55,2,87,1,6,4,48,29,43,40,25,12,15,11,35];
end=[41,60,94,86,100,84,18,69,97,44,97,9,92,88,79,61,100,58,66,73,72,60,74,86,92];
price=[444,1964,3907,3672,175,3307,364,4395,1998,69,3529,345,288,8195,1359,4418,4040,305,546,2235,2042,3630,5278,1424,4596];
requirement=[302,442,718,587,364,604,356,310,627,695,420,911,203,832,454,411,800,679,298,570,405,791,635,270,801];
capacity=[507,286,432,670,975,236,910,607,800,292];
